TCS_Benchmarks/redos_fix/snort1_output_distinct_143_142_24_0.txt
([^>]*)(\d{6})
([^>]*)(([wW][iI][dD][tT][hH]|[hH][eE][iI][gG][hH][tT])\s*=\s*["']?)(\d{6})